PROBLEM NAME: eil51_n7
KNAPSACK DATA TYPE: uncorrelated
DIMENSION: 7
NUMBER OF ITEMS: 30
CAPACITY OF KNAPSACK: 1372
MIN SPEED: 0.1
MAX SPEED: 1
RENTING RATIO: 9.17
EDGE_WEIGHT_TYPE: CEIL_2D
NODE_COORD_SECTION	(INDEX, X, Y):
1	42	57
2	7	38
3	30	48
4	45	35
5	5	6
6	56	37
7	30	40
ITEMS SECTION	(INDEX, PROFIT, WEIGHT, ASSIGNED NODE NUMBER):
1	994	367	3
2	992	421	3
3	893	984	3
4	874	138	3
5	815	845	3
6	794	995	7
7	791	9	7
8	766	882	7
9	720	856	7
10	700	72	7
11	667	122	2
12	649	322	2
13	633	299	2
14	617	874	2
15	598	94	2
16	544	574	5
17	506	326	5
18	457	43	5
19	446	955	5
20	428	682	5
21	422	252	4
22	419	145	4
23	416	248	4
24	359	901	4
25	334	715	4
26	237	795	6
27	196	529	6
28	131	433	6
29	94	485	6
30	7	738	6
